
Gurobi 6.0.2 (win64) logging started 06/02/15 11:55:31

Read LP format model from file C:\MT\repository\VRPTWMS\instances\mip\toCalculate\TestInstance2Fuel_No_1.lp
Reading time = 0.00 seconds
(null): 73 rows, 49 columns, 234 nonzeros
Optimize a model with 73 rows, 49 columns and 234 nonzeros
Model has 36 quadratic constraints
WARNING: Only barrier available for SOCP models
Coefficient statistics:
  Matrix range    [1e+00, 2e+02]
  Objective range [1e+00, 1e+02]
  Bounds range    [1e+00, 1e+02]
  RHS range       [1e+00, 2e+02]
Presolve removed 35 rows and 20 columns
Presolve time: 0.00s
Presolved: 76 rows, 49 columns, 302 nonzeros
Variable types: 18 continuous, 31 integer (21 binary)
Found heuristic solution: objective 409.0000000
Optimize a model with 76 rows, 49 columns and 302 nonzeros
Coefficient statistics:
  Matrix range    [1e+00, 2e+02]
  Objective range [1e+00, 1e+02]
  Bounds range    [1e+00, 1e+02]
  RHS range       [1e+00, 1e+02]
Presolve removed 20 rows and 13 columns
Presolved: 56 rows, 38 columns, 234 nonzeros


Root relaxation: objective 2.070000e+02, 16 iterations, 0.01 seconds

    Nodes    |    Current Node    |     Objective Bounds      |     Work
 Expl Unexpl |  Obj  Depth IntInf | Incumbent    BestBd   Gap | It/Node Time

     0     0  207.00000    0    8  409.00000  207.00000  49.4%     -    0s
     0     0  229.54545    0   12  409.00000  229.54545  43.9%     -    0s
H    0     0                     308.0000000  229.54545  25.5%     -    0s
     0     0     cutoff    0       308.00000  307.00031  0.32%     -    0s

Cutting planes:
  Cover: 1
  Implied bound: 1
  Clique: 8
  MIR: 2

Explored 0 nodes (50 simplex iterations) in 0.01 seconds
Thread count was 2 (of 4 available processors)

Optimal solution found (tolerance 1.00e-04)
Best objective 3.080000000000e+02, best bound 3.080000000000e+02, gap 0.0%
k_c1	80.0
k_c2	40.0
k_c3	100.0
k_dN	-0.0
o_1	1.0
o_2	0.0
o_3	1.0
p_1	1.0
p_2	0.0
p_3	1.0
phi_c1	0.0
phi_c2	30.0
phi_c3	-0.0
phi_dN	0.0
tauD_c1	30.0
tauD_c2	60.0
tauD_c3	10.0
tauD_d0	-0.0
tauD_dN	100.0
tauS_c1	30.0
tauS_c2	40.0
tauS_c3	10.0
tauS_d0	-0.0
tauS_dN	50.0
x_c1_c2	1.0
x_c1_c3	0.0
x_c1_dN	0.0
x_c2_c1	0.0
x_c2_c3	0.0
x_c2_dN	1.0
x_c3_c1	0.0
x_c3_c2	0.0
x_c3_dN	1.0
x_d0_c1	1.0
x_d0_c2	0.0
x_d0_c3	1.0
z_c1_c2	0.0
z_c1_c3	0.0
z_c1_dN	1.0
z_c2_c1	0.0
z_c2_c3	0.0
z_c2_dN	0.0
z_c3_c1	1.0
z_c3_c2	0.0
z_c3_dN	0.0
z_d0_c1	0.0
z_d0_c2	0.0
z_d0_c3	1.0
z_d0_dN	0.0
